p cnf 76 54
c p distribution  0.875 0.125
c p distribution  0.875 0.125
c p distribution  0.875 0.125
c p distribution  0.875 0.125
c p distribution  0.875 0.125
c p distribution  0.875 0.125
c p distribution  0.875 0.125
c p distribution  0.875 0.125
c p distribution  0.875 0.125
c p distribution  0.875 0.125
c p distribution  0.875 0.125
c p distribution  0.875 0.125
c p distribution  0.875 0.125
c p distribution  0.875 0.125
c p distribution  0.875 0.125
c p distribution  0.875 0.125
c p distribution  0.875 0.125
c p distribution  0.875 0.125
c p distribution  0.875 0.125
c p distribution  0.875 0.125
c p distribution  0.875 0.125
c p distribution  0.875 0.125
c p distribution  0.875 0.125
c p distribution  0.875 0.125
c p distribution  0.875 0.125
c p distribution  0.875 0.125
76 0
-55 0
69 -66 -1 0
66 -69 -1 0
65 -63 -3 0
63 -65 -3 0
66 -71 -5 0
71 -66 -5 0
69 -55 -7 0
55 -69 -7 0
54 -67 -9 0
67 -54 -9 0
65 -56 -11 0
56 -65 -11 0
72 -68 -13 0
68 -72 -13 0
72 -64 -15 0
64 -72 -15 0
53 -58 -17 0
58 -53 -17 0
65 -74 -19 0
74 -65 -19 0
59 -55 -21 0
55 -59 -21 0
72 -74 -23 0
74 -72 -23 0
65 -64 -25 0
64 -65 -25 0
63 -67 -27 0
67 -63 -27 0
66 -69 -29 0
69 -66 -29 0
63 -70 -31 0
70 -63 -31 0
54 -76 -33 0
76 -54 -33 0
59 -67 -35 0
67 -59 -35 0
70 -53 -37 0
53 -70 -37 0
75 -67 -39 0
67 -75 -39 0
69 -64 -41 0
64 -69 -41 0
61 -66 -43 0
66 -61 -43 0
69 -58 -45 0
58 -69 -45 0
57 -56 -47 0
56 -57 -47 0
60 -67 -49 0
67 -60 -49 0
57 -56 -51 0
56 -57 -51 0
